param set_len = 26;
param target_sum = 861997042;
param values := [0] 107687388 [1] 7562669 [2] 20164384 [3] 21948413 [4] 129776032 [5] 68495876 [6] 42914672 [7] 134079003 [8] 79927738 [9] 50272053 [10] 23908120 [11] 11792017 [12] 124442852 [13] 24678222 [14] 114869081 [15] 53744544 [16] 3731638 [17] 117793603 [18] 110020760 [19] 27873650 [20] 22928910 [21] 62768439 [22] 106849882 [23] 34751375 [24] 56214128 [25] 84574407 ;
